(declare-fun temp142_1 () (_ BitVec 64))
(declare-fun var1051073 () (_ BitVec 64))
(declare-fun temp142_2 () (_ BitVec 64))
(declare-fun var132043 () (_ BitVec 64))
(declare-fun temp142_3 () (_ BitVec 64))
(declare-fun var1313217 () (_ BitVec 64))
(declare-fun temp142_4 () (_ BitVec 64))
(declare-fun var1706433 () (_ BitVec 64))
(declare-fun temp142_5 () (_ BitVec 64))
(declare-fun var2296257 () (_ BitVec 64))
(declare-fun temp142_6 () (_ BitVec 64))
(declare-fun var2886081 () (_ BitVec 64))
(declare-fun temp142_7 () (_ BitVec 64))
(declare-fun var3475905 () (_ BitVec 64))
(declare-fun temp142_8 () (_ BitVec 64))
(declare-fun var134570 () (_ BitVec 64))
(declare-fun temp142_9 () (_ BitVec 64))
(declare-fun temp142_11 () (_ BitVec 64))
(declare-fun temp142_10 () (_ BitVec 64))
(declare-fun temp142_12 () (_ BitVec 64))
(declare-fun ARGNAME_input_NAMEEND_DIM () (_ BitVec 64))
(declare-fun var134912 () (_ BitVec 64))
(declare-fun temp142_13 () (_ BitVec 64))
(declare-fun temp142_14 () (_ BitVec 64))
(declare-fun ARGNAME_training_NAMEEND () (_ BitVec 64))
(declare-fun var134935 () (_ BitVec 64))
(declare-fun temp142_16 () (_ BitVec 64))
(declare-fun temp142_15 () (_ BitVec 64))
(assert (= temp142_1 #x0000000000000002))
(assert (= var1051073 temp142_1))
(assert (= temp142_2 #x0000000000000001))
(assert (= var132043 temp142_2))
(assert (= temp142_3 #x0000000000000002))
(assert (= var1313217 temp142_3))
(assert (= temp142_4 #x0000000000000002))
(assert (= var1706433 temp142_4))
(assert (= temp142_5 #x0000000000000002))
(assert (= var2296257 temp142_5))
(assert (= temp142_6 #x0000000000000002))
(assert (= var2886081 temp142_6))
(assert (= temp142_7 #x0000000000000002))
(assert (= var3475905 temp142_7))
(assert (= temp142_8 #x0000000000000000))
(assert (= var134570 temp142_8))
(assert (= temp142_9 #x0000000000000000))
(assert (= var134570 temp142_9))
(assert (= temp142_11 #x0000000000000000))
(assert (= temp142_10 temp142_11))
(assert (= temp142_12 #x0000000000000006))
(assert (= var134912
   (ite (bvslt ARGNAME_input_NAMEEND_DIM temp142_12)
        #x0000000000000001
        #x0000000000000000)))
(assert (= temp142_13 #x0000000000000001))
(assert (= var134912 temp142_13))
(assert (= temp142_14 #x0000000000000001))
(assert (= var134935 (bvxor ARGNAME_training_NAMEEND temp142_14)))
(assert (= temp142_16 #x0000000000000002))
(assert (= temp142_15 temp142_16))
(model-add temp142_1 () (_ BitVec 64) #x0000000000000002)
(model-add var1051073 () (_ BitVec 64) #x0000000000000002)
(model-add temp142_2 () (_ BitVec 64) #x0000000000000001)
(model-add var132043 () (_ BitVec 64) #x0000000000000001)
(model-add temp142_3 () (_ BitVec 64) #x0000000000000002)
(model-add var1313217 () (_ BitVec 64) #x0000000000000002)
(model-add temp142_4 () (_ BitVec 64) #x0000000000000002)
(model-add var1706433 () (_ BitVec 64) #x0000000000000002)
(model-add temp142_5 () (_ BitVec 64) #x0000000000000002)
(model-add var2296257 () (_ BitVec 64) #x0000000000000002)
(model-add temp142_6 () (_ BitVec 64) #x0000000000000002)
(model-add var2886081 () (_ BitVec 64) #x0000000000000002)
(model-add temp142_7 () (_ BitVec 64) #x0000000000000002)
(model-add var3475905 () (_ BitVec 64) #x0000000000000002)
(model-add temp142_8 () (_ BitVec 64) #x0000000000000000)
(model-add var134570 () (_ BitVec 64) #x0000000000000000)
(model-add temp142_9 () (_ BitVec 64) #x0000000000000000)




